NAME : tsp20_3.153.tour
COMMENT : Length = 153
COMMENT : Found by LKH [Keld Helsgaun]
TYPE : TOUR
DIMENSION : 20
TOUR_SECTION
1
7
17
5
6
10
4
8
11
9
12
20
19
2
14
13
16
3
15
18
-1
EOF
